// Objective Function
max : 19v1+25v2;

/* Constraints */
-150u1-.2u2+14v1+3.5v2<=0;
-400u1-.7u2+14v1+21v2<=0;
-320u1-1.2u2+42v1+10.5v2<=0;
-520u1-2u2+28v1+42v2<=0;
-350u1-1.2u2+19v1+25v2<=0;
-320u1-.7u2+14v1+15v2<=0;
350u1+1.2u2=1;